(declare-const |param0@pos':73| Int)
(declare-const |param0':72| Int)
(declare-const |type_err:6| Int)
(declare-const |type_err:5| Int)
(declare-const |param0@width':74| Int)
(declare-const |K:79| Int)
(assert (and (or (not (<= (- |K:79|) 0)) (= (+ |param0':72| |K:79| -4) 0))
               (or (and (= |K:79| 0)
                          (= (+ (- |param0@width':74|) |type_err:5|) 0)
                          (= (+ (- |param0@pos':73|) |type_err:6|) 0)
                          (= (+ (- |param0':72|) 4) 0))
                     (and (<= (+ (- |K:79|) 1) 0)
                            (<= (+ (- |param0':72|) 2) 0))) (<= (- |K:79|) 0)
               (<= (+ (- |param0':72|) 3) 0) (<= (+ |param0':72| -3) 0)))
(check-sat)
